sat
(:max-memory        19.94
 :memory            17.85
 :num-allocs        743686478
 :rlimit-count      2177921
 :sls-constraints   7376
 :sls-ddfw-flips    479630.00
 :sls-ddfw-reinits  10
 :sls-ddfw-restarts 19
 :sls-ddfw-shifts   198707.00
 :sls.euf-conflict  7376
 :time              1.26
 :total-time        1.27)
